1 2
2 2
3 1
4 1
5 2
6 1
7 2
8 2
9 1
10 2
11 1
12 2
13 1
14 2
15 1
16 1
17 1
18 2
19 2
20 2
21 2
22 2
23 1
24 1
25 1
26 1
27 1
28 1
29 1
30 1
31 2
32 1
33 1
34 2
35 2
36 1
37 1
38 1
39 2
40 2
41 1
42 1
43 1
44 1
45 2
46 1
47 2
48 1
49 1
50 1
51 2
52 1
53 1
54 2
55 2
56 1
57 2
58 1
59 1
60 1
61 1
62 2
63 1
64 1
65 1
66 1
67 1
68 1
69 2
70 1
71 1
72 1
73 1
74 2
75 1
76 1
77 1
78 1
79 1
80 1
81 2
82 2
83 1
84 1
85 2
86 1
87 1
88 1
89 1
90 1
91 1
92 1
93 2
94 1
95 1
96 2
97 2
98 1
99 2
100 1
101 1
102 1
103 1
104 1
105 2
106 1
107 1
108 1
109 1
110 1
111 1
112 1
113 1
114 1
115 2
116 1
117 1
118 1
119 1
120 2
121 2
122 2
123 2
124 2
125 1
126 1
127 2
128 2
129 2
130 1
131 1
132 1
133 1
134 1
135 2
136 1
137 1
138 2
139 2
140 1
141 1
142 1
143 1
144 1
145 1
146 1
147 2
148 1
149 1
150 1
151 2
152 2
153 1
154 1
155 1
156 1
157 2
158 1
159 1
160 1
161 1
162 2
163 2
164 2
165 1
166 1
167 1
168 1
169 2
170 1
171 2
172 1
173 1
174 1
175 2
176 2
177 1
178 1
179 1
180 1
181 1
182 1
183 2
184 2
185 2
186 2
187 1
188 1
189 1
190 1
191 1
192 2
193 2
194 2
195 2
196 1
197 1
198 1
199 1
200 1
201 2
202 1
203 1
204 1
205 1
206 1
207 1
208 1
209 1
210 1
211 1
212 2
213 2
214 1
215 1
216 1
217 1
218 1
219 2
220 2
221 2
222 1
223 1
224 1
225 1
226 1
227 1
228 2
229 1
230 1
231 1
232 2
233 2
234 1
235 2
236 2
237 1
238 1
239 1
240 1
241 2
242 2
243 1
244 1
245 1
246 2
247 1
248 1
249 1
250 2
251 1
252 1
253 2
254 2
255 1
256 2
257 1
258 1
259 1
260 1
261 2
262 1
263 2
264 2
265 2
266 2
267 2
268 2
269 1
270 2
271 1
272 2
273 1
274 2
275 1
276 1
277 2
278 1
279 1
280 2
281 1
282 1
283 2
284 1
285 1
286 1
287 1
288 2
289 1
290 1
291 2
292 1
293 2
294 2
295 1
296 2
297 2
298 2
299 2
300 2
301 1
302 2
303 2
304 1
305 2
306 1
307 1
308 1
309 1
310 1
311 1
312 1
313 1
314 1
315 2
316 2
317 2
318 2
319 1
320 1
321 1
322 2
323 2
324 1
325 1
326 2
327 1
328 1
329 2
330 1
331 2
332 2
333 2
334 1
335 1
336 1
337 1
338 1
339 1
340 2
341 1
342 2
343 1
344 2
345 1
346 1
347 2
348 1
349 1
350 1
351 2
352 1
353 2
354 1
355 2
356 1
357 1
358 2
359 2
360 2
361 2
362 1
363 1
364 1
365 2
366 1
367 1
368 1
369 1
370 2
371 1
372 1
373 1
374 2
375 2
376 2
377 1
378 2
379 1
380 1
381 2
382 1
383 2
384 1
385 2
386 1
387 1
388 1
389 1
390 1
391 1
392 1
393 1
394 1
395 1
396 2
397 1
398 1
399 1
400 1
401 1
402 1
403 2
404 2
405 1
406 2
407 1
408 2
409 1
410 1
411 1
412 2
413 2
414 2
415 1
416 1
417 2
418 2
419 1
420 1
421 1
422 2
423 1
424 1
425 2
426 1
427 2
428 1
429 2
430 1
431 1
432 2
433 1
434 1
435 2
436 1
437 1
438 1
439 1
440 1
441 1
442 1
443 2
444 1
445 2
446 1
447 2
448 2
449 1
450 1
451 1
452 2
453 1
454 2
455 1
456 2
457 1
458 1
459 1
460 1
461 1
462 1
463 2
464 2
465 1
466 1
467 1
468 1
469 1
470 1
471 2
472 1
473 2
474 1
475 1
476 1
477 1
478 1
479 1
480 1
481 2
482 2
483 2
484 1
485 2
486 1
487 1
488 2
489 1
490 1
491 1
492 2
493 1
494 2
495 1
496 2
497 2
498 1
499 1
500 2
501 2
502 2
503 1
504 2
505 2
506 2
507 1
508 1
509 1
510 2
511 1
512 1
513 1
514 1
515 2
516 1
517 1
518 1
519 2
520 1
521 1
522 1
523 2
524 1
525 1
526 2
527 1
528 1
529 1
530 1
531 2
532 2
533 2
534 1
535 2
536 2
537 1
538 2
539 1
540 1
541 1
542 1
543 1
544 1
545 2
546 2
547 1
548 1
549 2
550 2
551 1
552 1
553 1
554 1
555 2
556 1
557 1
558 1
559 2
560 2
561 1
562 2
563 2
564 2
565 1
566 2
567 1
568 1
569 2
570 1
571 2
572 1
573 1
574 1
575 2
576 1
577 1
578 1
579 2
580 2
581 1
582 1
583 1
584 1
585 2
586 2
587 1
588 2
589 1
590 1
591 1
592 1
593 1
594 1
595 1
596 2
597 1
598 1
599 1
600 2
601 2
602 1
603 1
604 1
605 1
606 1
607 1
608 1
609 1
610 2
611 1
612 1
613 1
614 2
615 1
616 2
617 1
618 1
619 2
620 1
621 1
622 2
623 2
624 1
625 2
626 1
627 1
628 1
629 2
630 1
631 1
632 1
633 2
634 2
635 1
636 1
637 1
638 2
639 2
640 1
641 2
642 1
643 1
644 1
645 1
646 1
647 2
648 2
649 1
650 2
651 1
652 2
653 2
654 1
655 1
656 1
657 1
658 1
659 1
660 1
661 1
662 2
663 2
664 1
665 2
666 2
667 1
668 1
669 1
670 1
671 1
672 2
673 1
674 1
675 1
676 1
677 2
678 1
679 1
680 2
681 2
682 1
683 1
684 2
685 1
686 2
687 2
688 1
689 1
690 1
691 1
692 2
693 1
694 1
695 2
696 2
697 1
698 1
699 2
700 1
701 1
702 1
703 2
704 1
705 2
706 1
707 1
708 2
709 1
710 1
711 1
712 1
713 1
714 2
715 2
716 1
717 1
718 2
719 2
720 1
721 1
722 2
723 2
724 1
725 2
726 1
727 2
728 1
729 2
730 1
731 1
732 2
733 1
734 1
735 2
736 1
737 1
738 1
739 2
740 2
741 1
742 1
743 2
744 2
745 1
746 1
747 2
748 1
749 2
750 1
751 1
752 2
753 1
754 2
755 1
756 2
757 2
758 1
759 2
760 1
761 1
762 1
763 1
764 1
765 2
766 2
767 2
768 1
769 1
770 2
771 2
772 1
773 1
774 1
775 1
776 1
777 2
778 2
779 1
780 1
781 1
782 2
783 1
784 1
785 1
786 1
787 1
788 1
789 1
790 1
791 1
792 1
793 2
794 2
795 1
796 1
797 1
798 1
799 2
800 1
801 1
802 1
803 1
804 1
805 1
806 2
807 2
808 2
809 1
810 1
811 1
812 1
813 1
814 1
815 1
816 1
817 2
818 1
819 2
820 2
821 1
822 2
823 1
824 1
825 1
826 2
827 2
828 1
829 1
830 2
831 2
832 1
833 1
834 2
835 1
836 1
837 1
838 1
839 2
840 2
841 1
842 1
843 1
844 1
845 1
846 1
847 1
848 1
849 2
850 2
851 1
852 1
853 2
854 1
855 2
856 2
857 1
858 1
859 2
860 1
861 1
862 2
863 2
864 2
865 1
866 2
867 1
868 2
869 1
870 1
871 1
872 1
873 2
874 1
875 2
876 1
877 1
878 2
879 2
880 1
881 2
882 2
883 2
884 2
885 2
886 1
887 1
888 2
889 1
890 2
891 1
892 2
893 2
894 2
895 2
896 2
897 1
898 1
899 2
900 2
901 2
902 1
903 2
904 1
905 1
906 1
907 2
908 2
909 1
910 1
911 2
912 1
913 1
914 2
915 1
916 1
917 1
918 1
919 1
920 2
921 2
922 2
923 2
924 2
925 2
926 2
927 1
928 1
929 2
930 1
931 1
932 1
933 1
934 1
935 1
936 1
937 1
938 1
939 2
940 1
941 2
942 1
943 1
944 2
945 1
946 2
947 1
948 2
949 2
950 1
951 2
952 1
953 1
954 2
955 1
956 2
957 1
958 1
959 2
960 1
961 1
962 1
963 2
964 2
965 2
966 1
967 2
968 2
969 1
970 2
971 2
972 1
973 1
974 1
975 1
976 2
977 1
978 1
979 2
980 1
981 2
982 1
983 1
984 2
985 2
986 1
987 2
988 1
989 2
990 1
991 2
992 1
993 1
994 2
995 1
996 1
997 2
998 1
999 1
1000 1
1001 2
1002 1
1003 2
1004 1
1005 1
1006 1
1007 2
1008 1
1009 1
1010 2
1011 2
1012 2
1013 2
1014 2
1015 1
1016 1
1017 1
1018 2
1019 2
1020 2
1021 2
1022 1
1023 2
1024 1
1025 1
1026 2
1027 1
1028 1
1029 2
1030 1
1031 2
1032 1
1033 1
1034 2
1035 2
1036 1
1037 2
1038 2
1039 2
1040 2
1041 2
1042 1
1043 1
1044 2
1045 1
1046 2
1047 1
1048 1
1049 1
1050 2
1051 1
1052 2
1053 2
1054 1
1055 1
1056 2
1057 1
1058 1
1059 1
1060 1
1061 2
1062 1
1063 1
1064 2
1065 2
1066 1
1067 1
1068 1
1069 2
1070 1
1071 2
1072 1
1073 1
1074 2
1075 2
1076 1
1077 2
1078 1
1079 1
1080 2
1081 1
1082 2
1083 1
1084 1
1085 2
1086 1
1087 1
1088 1
1089 1
1090 1
1091 2
1092 2
1093 1
1094 1
1095 2
1096 2
1097 2
1098 2
1099 1
1100 1
1101 2
1102 2
1103 1
1104 1
1105 1
1106 2
1107 2
1108 1
1109 1
1110 1
1111 2
1112 2
1113 2
1114 2
1115 1
1116 1
1117 1
1118 1
1119 1
1120 2
1121 1
1122 1
1123 2
1124 1
1125 2
1126 2
1127 1
1128 1
1129 2
1130 1
1131 1
1132 2
1133 2
1134 1
1135 1
1136 2
1137 2
1138 2
1139 1
1140 1
1141 2
1142 1
1143 1
1144 2
1145 1
1146 2
1147 1
1148 2
1149 1
1150 2
1151 2
1152 1
1153 2
1154 1
1155 1
1156 1
1157 1
1158 2
1159 1
1160 1
1161 2
1162 2
1163 1
1164 2
1165 1
1166 2
1167 1
1168 1
1169 2
1170 2
1171 1
1172 1
1173 2
1174 2
1175 2
1176 2
1177 1
1178 1
1179 2
1180 2
1181 2
1182 2
1183 2
1184 1
1185 2
1186 1
1187 1
1188 1
1189 2
1190 2
1191 1
1192 2
1193 1
1194 1
1195 1
1196 1
1197 2
1198 1
1199 1
1200 2
1201 1
1202 2
1203 1
1204 1
1205 1
1206 2
1207 2
1208 2
1209 1
1210 1
1211 1
1212 1
1213 1
1214 1
1215 2
1216 1
1217 2
1218 1
1219 1
1220 1
1221 2
1222 1
1223 1
1224 1
1225 2
1226 1
1227 2
1228 1
1229 2
1230 1
1231 1
1232 2
1233 2
1234 1
1235 1
1236 1
1237 1
1238 1
1239 2
1240 2
1241 1
1242 2
1243 2
1244 2
1245 2
1246 1
1247 2
1248 2
1249 1
1250 2
1251 2
1252 1
1253 2
1254 1
1255 1
1256 1
1257 1
1258 1
1259 1
1260 2
1261 1
1262 1
1263 2
1264 2
1265 1
1266 1
1267 2
1268 1
1269 1
1270 1
1271 2
1272 2
1273 1
1274 2
1275 1
1276 2
1277 2
1278 2
1279 2
1280 2
1281 1
1282 2
1283 1
1284 1
1285 1
1286 1
1287 2
1288 1
1289 2
1290 1
1291 1
1292 1
1293 1
1294 1
1295 2
1296 1
1297 1
1298 1
1299 2
1300 1
1301 1
1302 1
1303 1
1304 2
1305 1
1306 2
1307 2
1308 2
1309 2
1310 2
1311 1
1312 2
1313 2
1314 2
1315 1
1316 1
1317 2
1318 2
1319 1
1320 2
1321 1
1322 1
1323 2
1324 2
1325 1
1326 2
1327 1
1328 2
1329 1
1330 1
1331 1
1332 1
1333 2
1334 1
1335 2
1336 2
1337 1
1338 2
1339 2
1340 1
1341 2
1342 2
1343 2
1344 1
1345 1
1346 2
1347 2
1348 1
1349 2
1350 1
1351 1
1352 1
1353 1
1354 2
1355 1
1356 2
1357 1
1358 1
1359 1
1360 1
1361 2
1362 1
1363 2
1364 2
1365 1
1366 1
1367 2
1368 2
1369 2
1370 2
1371 1
1372 2
1373 2
1374 1
1375 1
1376 2
1377 1
1378 1
1379 1
1380 1
1381 2
1382 2
1383 2
1384 2
1385 2
1386 1
1387 1
1388 1
1389 2
1390 1
1391 1
1392 2
1393 2
1394 2
1395 1
1396 1
1397 1
1398 2
1399 1
1400 1
1401 2
1402 2
1403 2
1404 1
1405 1
1406 2
1407 1
1408 1
1409 2
1410 1
1411 2
1412 2
1413 2
1414 2
1415 1
1416 1
1417 1
1418 2
1419 2
1420 1
1421 1
1422 2
1423 1
1424 2
1425 2
1426 1
1427 1
1428 1
1429 1
1430 1
1431 2
1432 1
1433 1
1434 1
1435 1
1436 2
1437 1
1438 2
1439 1
1440 1
1441 2
1442 2
1443 2
1444 2
1445 1
1446 1
1447 2
1448 1
1449 2
1450 2
1451 2
1452 1
1453 1
1454 1
1455 1
1456 2
1457 1
1458 1
1459 2
1460 1
1461 1
1462 1
1463 2
1464 2
1465 2
1466 2
1467 1
1468 1
1469 1
1470 1
1471 1
1472 2
1473 1
1474 1
1475 1
1476 1
1477 1
1478 2
1479 2
1480 2
1481 1
1482 1
1483 2
1484 2
1485 1
1486 2
1487 2
1488 1
1489 1
1490 1
1491 2
1492 1
1493 2
1494 1
1495 1
1496 2
1497 1
1498 2
1499 2
1500 2
1501 2
1502 1
1503 2
1504 2
1505 2
1506 1
1507 2
1508 2
1509 1
1510 2
1511 2
1512 1
1513 2
1514 1
1515 2
1516 2
1517 1
1518 2
1519 1
1520 1
1521 1
1522 1
1523 1
1524 1
1525 2
1526 1
1527 2
1528 1
1529 2
1530 1
1531 2
1532 1
1533 2
1534 1
1535 2
1536 2
1537 2
1538 2
1539 1
1540 2
1541 2
1542 2
1543 1
1544 1
1545 1
1546 1
1547 1
1548 1
1549 2
1550 1
1551 2
1552 1
1553 2
1554 2
1555 2
1556 2
1557 1
1558 2
1559 1
1560 2
1561 2
1562 2
1563 1
1564 1
1565 2
1566 2
1567 2
1568 1
1569 1
1570 2
1571 2
1572 1
1573 1
1574 1
1575 2
1576 1
1577 2
1578 1
1579 2
1580 2
1581 1
1582 1
1583 2
1584 1
1585 1
1586 2
1587 2
1588 2
1589 1
1590 2
1591 1
1592 1
1593 2
1594 2
1595 1
1596 1
1597 2
1598 1
1599 2
1600 2
1601 2
1602 1
1603 2
1604 1
1605 1
1606 2
1607 1
1608 2
1609 1
1610 1
1611 1
1612 1
1613 2
1614 2
1615 1
1616 1
1617 1
1618 2
1619 1
1620 1
1621 1
1622 2
1623 2
1624 2
1625 2
1626 1
1627 1
1628 2
1629 1
1630 1
1631 1
1632 2
1633 1
1634 1
1635 1
1636 2
1637 2
1638 1
1639 1
1640 1
1641 2
1642 2
1643 2
1644 2
1645 2
1646 1
1647 2
1648 2
1649 1
1650 2
1651 2
1652 2
1653 1
1654 1
1655 1
1656 2
1657 1
1658 1
1659 2
1660 1
1661 1
1662 2
1663 2
1664 1
1665 1
1666 2
1667 1
1668 1
1669 1
1670 1
1671 2
1672 2
1673 1
1674 2
1675 2
1676 1
1677 2
1678 1
1679 1
1680 1
1681 1
1682 1
1683 2
1684 1
1685 1
1686 2
1687 1
1688 2
1689 1
1690 2
1691 2
1692 2
1693 2
1694 1
1695 2
1696 1
1697 1
1698 1
1699 2
1700 2
1701 1
1702 1
1703 2
1704 1
1705 2
1706 2
1707 1
1708 2
1709 2
1710 2
1711 1
1712 1
1713 2
1714 1
1715 1
1716 1
1717 2
1718 1
1719 2
1720 1
1721 2
1722 1
1723 1
1724 1
1725 1
1726 2
1727 2
1728 2
1729 1
1730 1
1731 1
1732 2
1733 1
1734 2
1735 1
1736 2
1737 2
1738 1
1739 1
1740 2
1741 2
1742 2
1743 1
1744 1
1745 2
1746 2
1747 2
1748 1
1749 1
1750 1
1751 2
1752 1
1753 1
1754 1
1755 2
1756 2
1757 1
1758 1
1759 1
1760 1
1761 1
1762 1
1763 2
1764 1
1765 1
1766 2
1767 1
1768 1
1769 2
1770 1
1771 1
1772 1
1773 2
1774 2
1775 1
1776 2
1777 1
1778 1
1779 2
1780 2
1781 1
1782 2
1783 1
1784 2
1785 1
1786 1
1787 1
1788 2
1789 2
1790 1
1791 2
1792 1
1793 1
1794 1
1795 1
1796 2
1797 2
1798 1
1799 2
1800 2
1801 1
1802 2
1803 1
1804 2
1805 2
1806 1
1807 1
1808 1
1809 2
1810 2
1811 2
1812 2
1813 1
1814 2
1815 2
1816 2
1817 2
1818 1
1819 1
1820 1
1821 1
1822 2
1823 1
1824 2
1825 2
1826 1
1827 2
1828 2
1829 2
1830 1
1831 1
1832 2
1833 1
1834 2
1835 2
1836 1
1837 2
1838 2
1839 1
1840 1
1841 1
1842 1
1843 1
1844 1
1845 2
1846 2
1847 2
1848 1
1849 1
1850 2
1851 2
1852 1
1853 2
1854 2
1855 1
1856 2
1857 1
1858 2
1859 2
1860 2
1861 2
1862 2
1863 1
1864 2
1865 1
1866 1
1867 1
1868 2
1869 1
1870 1
1871 1
1872 2
1873 2
1874 2
1875 1
1876 2
1877 1
1878 2
1879 1
1880 1
1881 1
1882 1
1883 2
1884 2
1885 1
1886 2
1887 1
1888 1
1889 1
1890 2
1891 2
1892 1
1893 2
1894 2
1895 2
1896 1
1897 2
1898 2
1899 2
1900 1
1901 1
1902 2
1903 2
1904 2
1905 2
1906 1
1907 2
1908 2
1909 1
1910 1
1911 2
1912 2
1913 1
1914 2
1915 1
1916 1
1917 1
1918 2
1919 2
1920 1
1921 2
1922 2
1923 2
1924 1
1925 2
1926 1
1927 1
1928 2
1929 2
1930 1
1931 1
1932 1
1933 2
1934 1
1935 1
1936 1
1937 1
1938 1
1939 1
1940 2
1941 1
1942 1
1943 1
1944 1
1945 1
1946 2
1947 2
1948 1
1949 1
1950 2
1951 1
1952 2
1953 2
1954 1
1955 2
1956 1
1957 2
1958 1
1959 2
1960 1
1961 2
1962 2
1963 1
1964 1
1965 2
1966 2
1967 1
1968 2
1969 1
1970 1
1971 1
1972 1
1973 1
1974 1
1975 1
1976 1
1977 1
1978 2
1979 2
1980 1
1981 2
1982 2
1983 1
1984 1
1985 1
1986 1
1987 2
1988 1
1989 2
1990 1
1991 2
1992 1
1993 1
1994 2
1995 2
1996 1
1997 1
1998 2
1999 1
2000 2
2001 2
2002 1
2003 1
2004 1
2005 1
2006 2
2007 1
2008 1
2009 2
2010 1
2011 2
2012 2
2013 1
2014 2
2015 1
2016 1
2017 1
2018 2
2019 2
2020 2
2021 2
2022 1
2023 2
2024 1
2025 2
2026 2
2027 2
2028 1
2029 2
2030 1
2031 1
2032 1
2033 2
2034 2
2035 1
2036 2
2037 1
2038 1
2039 1
2040 1
2041 2
2042 2
2043 2
2044 1
2045 2
2046 2
2047 1
2048 1
2049 1
2050 1
2051 1
2052 2
2053 1
2054 2
2055 1
2056 1
2057 1
2058 2
2059 1
2060 2
2061 2
2062 2
2063 1
2064 2
2065 1
2066 2
2067 2
2068 1
2069 1
2070 2
2071 2
2072 1
2073 1
2074 2
2075 1
2076 2
2077 2
2078 2
2079 1
2080 2
2081 1
2082 2
2083 2
2084 2
2085 2
2086 2
2087 1
2088 1
2089 1
2090 2
2091 2
2092 1
2093 2
2094 1
2095 1
2096 2
2097 1
2098 1
2099 2
2100 1
2101 1
2102 2
2103 1
2104 2
2105 2
2106 2
2107 1
2108 1
2109 1
2110 1
2111 1
2112 2
2113 2
2114 2
2115 2
2116 1
2117 2
2118 1
2119 1
2120 1
2121 1
2122 1
2123 2
2124 1
2125 2
2126 2
2127 2
2128 1
2129 1
2130 2
2131 1
2132 1
2133 2
2134 2
2135 2
2136 2
2137 2
2138 1
2139 2
2140 2
2141 1
2142 2
2143 2
2144 1
2145 2
2146 2
2147 2
2148 1
2149 1
2150 2
2151 2
2152 2
2153 2
2154 1
2155 1
2156 1
2157 1
2158 1
2159 2
2160 2
2161 2
2162 2
2163 1
2164 2
2165 2
2166 1
2167 1
2168 2
2169 2
2170 1
2171 2
2172 2
2173 2
2174 1
2175 1
2176 2
2177 1
2178 1
2179 2
2180 2
2181 2
2182 1
2183 2
2184 2
2185 2
2186 1
2187 2
2188 1
2189 2
2190 1
2191 1
2192 1
2193 1
2194 1
2195 1
2196 2
2197 1
2198 1
2199 1
2200 1
2201 1
2202 1
2203 1
2204 2
2205 2
2206 2
2207 1
2208 1
2209 1
2210 2
2211 2
2212 1
2213 2
2214 2
2215 1
2216 2
2217 2
2218 2
2219 2
2220 1
2221 2
2222 1
2223 1
2224 2
2225 1
2226 2
2227 1
2228 2
2229 2
2230 2
2231 1
2232 1
2233 2
2234 1
2235 2
2236 2
2237 2
2238 2
2239 1
2240 2
2241 2
2242 1
2243 2
2244 1
2245 2
2246 1
2247 2
2248 1
2249 1
2250 1
2251 2
2252 1
2253 2
2254 2
2255 2
2256 1
2257 1
2258 2
2259 1
2260 1
2261 1
2262 2
2263 2
2264 2
2265 1
2266 2
2267 1
2268 1
2269 1
2270 2
2271 1
2272 2
2273 1
2274 2
2275 2
2276 2
2277 1
2278 1
2279 2
2280 2
2281 2
2282 1
2283 1
2284 2
2285 2
2286 1
2287 1
2288 1
2289 1
2290 1
2291 2
2292 1
2293 2
2294 2
2295 2
2296 2
2297 2
2298 1
2299 1
2300 2
2301 2
2302 2
2303 1
2304 2
2305 1
2306 2
2307 2
2308 1
2309 2
2310 2
2311 1
2312 1
2313 2
2314 2
2315 2
2316 1
2317 2
2318 1
2319 1
2320 2
2321 1
2322 1
2323 2
2324 1
2325 2
2326 1
2327 1
2328 1
2329 1
2330 1
2331 1
2332 2
2333 1
2334 1
2335 2
2336 2
2337 2
2338 1
2339 2
2340 1
2341 2
2342 1
2343 1
2344 1
2345 1
2346 2
2347 1
2348 2
2349 1
2350 2
2351 1
2352 1
2353 1
2354 2
2355 1
2356 1
2357 2
2358 1
2359 1
2360 2
2361 2
2362 1
2363 1
2364 2
2365 2
2366 1
2367 1
2368 1
2369 1
2370 1
2371 2
2372 1
2373 2
2374 2
2375 2
2376 1
2377 1
2378 2
2379 1
2380 1
2381 2
2382 1
2383 1
2384 1
2385 1
2386 1
2387 1
2388 2
2389 1
2390 2
2391 2
2392 2
2393 2
2394 2
2395 1
2396 2
2397 1
2398 1
2399 1
2400 2
2401 2
2402 1
2403 1
2404 2
2405 2
2406 2
2407 1
2408 2
2409 1
2410 1
2411 1
2412 2
2413 1
2414 1
2415 1
2416 1
2417 1
2418 2
2419 2
2420 1
2421 1
2422 2
2423 2
2424 2
2425 2
2426 1
2427 1
2428 1
2429 2
2430 2
2431 1
2432 1
2433 1
2434 1
2435 1
2436 2
2437 2
2438 2
2439 2
2440 1
2441 2
2442 2
2443 1
2444 1
2445 2
2446 2
2447 1
2448 1
2449 1
2450 2
2451 1
2452 1
2453 2
2454 2
2455 2
2456 2
2457 2
2458 1
2459 2
2460 1
2461 2
2462 1
2463 2
2464 2
2465 2
2466 1
2467 2
2468 2
2469 2
2470 1
2471 2
2472 2
2473 2
2474 2
2475 1
2476 2
2477 1
2478 1
2479 1
2480 1
2481 1
2482 2
2483 1
2484 1
2485 2
2486 2
2487 1
2488 1
2489 2
2490 2
2491 1
2492 2
2493 2
2494 1
2495 2
2496 2
2497 2
2498 2
2499 2
2500 1
2501 2
2502 1
2503 1
2504 1
2505 2
2506 2
2507 2
2508 1
2509 2
2510 2
2511 1
2512 2
2513 1
2514 2
2515 1
2516 2
2517 2
2518 1
2519 2
2520 2
2521 1
2522 2
2523 1
2524 2
2525 1
2526 2
2527 1
2528 2
2529 1
2530 2
2531 2
2532 1
2533 2
2534 1
2535 1
2536 2
2537 2
2538 2
2539 2
2540 1
2541 2
2542 2
2543 1
2544 1
2545 1
2546 1
2547 2
2548 2
2549 1
2550 2
2551 2
2552 1
2553 2
2554 1
2555 2
2556 1
2557 2
2558 2
2559 2
2560 2
2561 2
2562 2
2563 2
2564 2
2565 2
2566 1
2567 2
2568 2
2569 1
2570 1
2571 1
2572 2
2573 1
2574 2
2575 1
2576 2
2577 2
2578 1
2579 2
2580 2
2581 2
2582 2
2583 2
2584 2
2585 1
2586 1
2587 1
2588 2
2589 2
2590 1
2591 2
2592 1
2593 2
2594 2
2595 1
2596 2
2597 2
2598 1
2599 2
2600 1
2601 1
2602 1
2603 2
2604 2
2605 2
2606 1
2607 2
2608 2
2609 1
2610 1
2611 1
2612 1
2613 2
2614 1
2615 2
2616 2
2617 1
2618 2
2619 1
2620 1
2621 1
2622 2
2623 1
2624 1
2625 2
2626 1
2627 1
2628 2
2629 2
2630 2
2631 1
2632 1
2633 1
2634 1
2635 2
2636 1
2637 2
2638 1
2639 2
2640 2
2641 2
2642 2
2643 2
2644 2
2645 2
2646 2
2647 1
2648 2
2649 1
2650 1
2651 2
2652 1
2653 1
2654 2
2655 2
2656 1
2657 2
2658 2
2659 2
2660 1
2661 2
2662 1
2663 1
2664 1
2665 2
2666 2
2667 1
2668 1
2669 2
2670 2
2671 2
2672 2
2673 2
2674 2
2675 2
2676 2
2677 2
2678 2
2679 1
2680 1
2681 2
2682 1
2683 1
2684 2
2685 2
2686 2
2687 2
2688 2
2689 2
2690 1
2691 2
2692 1
2693 1
2694 1
2695 2
2696 1
2697 1
2698 2
2699 2
2700 2
2701 1
2702 2
2703 2
2704 1
2705 2
2706 2
2707 2
2708 2
2709 2
2710 2
2711 1
2712 2
2713 1
2714 2
2715 1
2716 1
2717 1
2718 1
2719 2
2720 2
2721 1
2722 2
2723 2
2724 2
2725 2
2726 1
2727 1
2728 2
2729 2
2730 2
2731 1
2732 2
2733 1
2734 2
2735 2
2736 1
2737 1
2738 1
2739 2
2740 2
2741 1
2742 1
2743 1
2744 1
2745 2
2746 2
2747 1
2748 1
2749 1
2750 2
2751 1
2752 2
2753 2
2754 1
2755 1
2756 2
2757 1
2758 1
2759 1
2760 2
2761 1
2762 2
2763 1
2764 1
2765 2
2766 1
2767 2
2768 2
2769 2
2770 1
2771 2
2772 1
2773 2
2774 1
2775 2
2776 1
2777 2
2778 1
2779 2
2780 2
2781 2
2782 2
2783 2
2784 2
2785 2
2786 1
2787 2
2788 1
2789 2
2790 2
2791 1
2792 1
2793 1
2794 2
2795 1
2796 1
2797 1
2798 2
2799 2
2800 1
2801 2
2802 1
2803 2
2804 1
2805 2
2806 1
2807 1
2808 1
2809 2
2810 2
2811 1
2812 1
2813 2
2814 2
2815 2
2816 1
2817 2
2818 1
2819 1
2820 2
2821 2
2822 2
2823 2
2824 2
2825 2
2826 1
2827 1
2828 2
2829 2
2830 2
2831 1
2832 1
2833 1
2834 1
2835 2
2836 1
2837 1
2838 1
2839 2
2840 2
2841 2
2842 2
2843 2
2844 1
2845 2
2846 1
2847 2
2848 1
2849 1
2850 2
2851 2
2852 2
2853 1
2854 1
2855 2
2856 1
2857 1
2858 1
2859 1
2860 1
2861 1
2862 1
2863 2
2864 2
2865 1
2866 2
2867 2
2868 2
2869 1
2870 2
2871 1
2872 1
2873 2
2874 1
2875 2
2876 2
2877 1
2878 1
2879 2
2880 2
2881 2
2882 1
2883 2
2884 2
2885 1
2886 1
2887 1
2888 1
2889 2
2890 2
2891 1
2892 2
2893 1
2894 2
2895 1
2896 2
2897 1
2898 1
2899 2
2900 2
2901 1
2902 2
2903 2
2904 1
2905 1
2906 2
2907 2
2908 1
2909 2
2910 2
2911 1
2912 2
2913 2
2914 1
2915 2
2916 1
2917 1
2918 2
2919 2
2920 2
2921 1
2922 2
2923 1
2924 2
2925 2
2926 2
2927 2
2928 2
2929 1
2930 2
2931 2
2932 1
2933 1
2934 1
2935 2
2936 1
2937 2
2938 2
2939 2
2940 2
2941 1
2942 2
2943 2
2944 2
2945 1
2946 2
2947 1
2948 1
2949 1
2950 2
2951 2
2952 2
2953 2
2954 2
2955 1
2956 2
2957 1
2958 1
2959 2
2960 2
2961 2
2962 1
2963 2
2964 1
2965 2
2966 1
2967 2
2968 2
2969 2
2970 1
2971 2
2972 2
2973 1
2974 1
2975 1
2976 1
2977 1
2978 2
2979 2
2980 1
2981 2
2982 1
2983 1
2984 2
2985 1
2986 2
2987 1
2988 1
2989 2
2990 2
2991 2
2992 2
2993 1
2994 1
2995 2
2996 2
2997 1
2998 2
2999 2
3000 2
3001 1
3002 1
3003 2
3004 1
3005 2
3006 1
3007 1
3008 1
3009 2
3010 1
3011 1
3012 1
3013 2
3014 1
3015 2
3016 1
3017 1
3018 2
3019 1
3020 2
3021 2
3022 2
3023 2
3024 1
3025 2
3026 2
3027 1
3028 1
3029 2
3030 2
3031 1
3032 1
3033 1
3034 1
3035 2
3036 1
3037 2
3038 2
3039 2
3040 1
3041 1
3042 1
3043 2
3044 1
3045 2
3046 2
3047 2
3048 2
3049 1
3050 1
3051 2
3052 2
3053 2
3054 1
3055 1
3056 2
3057 2
3058 2
3059 2
3060 1
3061 2
3062 1
3063 1
3064 1
3065 2
3066 1
3067 1
3068 2
3069 2
3070 2
3071 2
3072 2
3073 2
3074 1
3075 1
3076 1
3077 2
3078 1
3079 1
3080 2
3081 1
3082 2
3083 2
3084 1
3085 1
3086 1
3087 2
3088 1
3089 2
3090 2
3091 2
3092 1
3093 2
3094 1
3095 1
3096 2
3097 1
3098 1
3099 1
3100 1
3101 1
3102 1
3103 1
3104 1
3105 2
3106 2
3107 2
3108 2
3109 1
3110 2
3111 2
3112 2
3113 1
3114 1
3115 1
3116 1
3117 2
3118 2
3119 1
3120 2
3121 1
3122 2
3123 2
3124 2
3125 2
3126 1
3127 1
3128 2
3129 1
3130 2
3131 2
3132 2
3133 2
3134 2
3135 1
3136 1
3137 1
3138 1
3139 2
3140 2
3141 1
3142 2
3143 1
3144 2
3145 2
3146 2
3147 1
3148 2
3149 2
3150 2
3151 1
3152 2
3153 2
3154 2
3155 1
3156 1
3157 2
3158 2
3159 1
3160 2
3161 2
3162 1
3163 2
3164 1
3165 2
3166 1
3167 1
3168 2
3169 2
3170 1
3171 1
3172 2
3173 2
3174 2
3175 2
3176 2
3177 2
3178 1
3179 2
3180 2
3181 2
3182 2
3183 2
3184 2
3185 2
3186 2
3187 2
3188 1
3189 1
3190 1
3191 2
3192 2
3193 2
3194 1
3195 1
3196 1
3197 2
3198 2
3199 1
3200 1
3201 1
3202 1
3203 1
3204 2
3205 2
3206 2
3207 1
3208 1
3209 1
3210 2
3211 1
3212 1
3213 2
3214 1
3215 2
3216 2
3217 2
3218 1
3219 2
3220 2
3221 2
3222 2
3223 1
3224 1
3225 2
3226 2
3227 2
3228 1
3229 2
3230 1
3231 2
3232 2
3233 2
3234 2
3235 2
3236 2
3237 2
3238 2
3239 2
3240 2
3241 2
3242 1
3243 1
3244 1
3245 2
3246 1
3247 1
3248 1
3249 2
3250 1
3251 2
3252 2
3253 2
3254 1
3255 1
3256 2
3257 1
3258 2
3259 2
3260 2
3261 1
3262 2
3263 1
3264 2
3265 2
3266 2
3267 2
3268 2
3269 2
3270 2
3271 1
3272 2
3273 2
3274 1
3275 1
3276 1
3277 2
3278 1
3279 2
3280 1
3281 1
3282 1
3283 2
3284 2
3285 2
3286 1
3287 2
3288 1
3289 1
3290 2
3291 2
3292 2
3293 2
3294 1
3295 1
3296 1
3297 1
3298 1
3299 2
3300 1
3301 1
3302 1
3303 1
3304 1
3305 2
3306 2
3307 2
3308 1
3309 1
3310 1
3311 2
3312 2
3313 1
3314 1
3315 2
3316 2
3317 2
3318 2
3319 1
3320 2
3321 2
3322 1
3323 2
3324 1
3325 2
3326 2
3327 1
3328 2
3329 1
3330 2
3331 1
3332 1
3333 1
3334 1
3335 2
3336 2
3337 1
3338 1
3339 1
3340 2
3341 2
3342 1
3343 2
3344 2
3345 2
3346 1
3347 2
3348 1
3349 2
3350 1
3351 1
3352 1
3353 2
3354 1
3355 1
3356 2
3357 2
3358 2
3359 1
3360 2
3361 2
3362 1
3363 1
3364 1
3365 2
3366 1
3367 2
3368 2
3369 2
3370 2
3371 1
3372 2
3373 2
3374 1
3375 1
3376 2
3377 2
3378 1
3379 1
3380 2
3381 2
3382 2
3383 2
3384 2
3385 1
3386 2
3387 2
3388 2
3389 1
3390 2
3391 2
3392 1
3393 1
3394 2
3395 2
3396 1
3397 1
3398 2
3399 2
3400 1
3401 2
3402 2
3403 1
3404 2
3405 1
3406 1
3407 1
3408 1
3409 1
3410 1
3411 2
3412 2
3413 2
3414 1
3415 1
3416 1
3417 2
3418 2
3419 2
3420 2
3421 1
3422 1
3423 2
3424 1
3425 1
3426 1
3427 1
3428 1
3429 2
3430 2
3431 1
3432 2
3433 1
3434 1
3435 1
3436 1
3437 1
3438 2
3439 2
3440 2
3441 1
3442 2
3443 2
3444 2
3445 1
3446 1
3447 1
3448 1
3449 2
3450 1
3451 1
3452 2
3453 2
3454 1
3455 1
3456 2
3457 2
3458 1
3459 2
3460 2
3461 1
3462 1
3463 2
3464 2
3465 1
3466 1
3467 1
3468 1
3469 1
3470 1
3471 1
3472 2
3473 1
3474 2
3475 1
3476 1
3477 1
3478 1
3479 1
3480 2
3481 1
3482 2
3483 2
3484 2
3485 1
3486 1
3487 1
3488 1
3489 2
3490 2
3491 2
3492 2
3493 1
3494 2
3495 2
3496 1
3497 1
3498 2
3499 1
3500 1
3501 2
3502 2
3503 1
3504 1
3505 2
3506 1
3507 2
3508 2
3509 1
3510 2
3511 2
3512 2
3513 2
3514 1
3515 1
3516 2
3517 2
3518 1
3519 1
3520 1
3521 1
3522 2
3523 1
3524 2
3525 2
3526 2
3527 1
3528 1
3529 1
3530 1
3531 1
3532 2
3533 1
3534 2
3535 2
3536 1
3537 2
3538 1
3539 2
3540 1
3541 1
3542 2
3543 1
3544 1
3545 2
3546 2
3547 1
3548 2
3549 1
3550 2
3551 1
3552 2
3553 2
3554 2
3555 1
3556 1
3557 1
3558 2
3559 2
3560 1
3561 1
3562 1
3563 2
3564 1
3565 1
3566 1
3567 1
3568 1
3569 1
3570 2
3571 2
3572 2
3573 2
3574 2
3575 2
3576 1
3577 1
3578 2
3579 1
3580 1
3581 1
3582 2
3583 1
3584 2
3585 2
3586 1
3587 2
3588 2
3589 2
3590 1
3591 2
3592 2
3593 2
3594 2
3595 2
3596 1
3597 1
3598 1
3599 2
3600 1
3601 1
3602 2
3603 1
3604 1
3605 2
3606 1
3607 1
3608 2
3609 2
3610 2
3611 2
3612 2
3613 1
3614 2
3615 2
3616 2
3617 2
3618 1
3619 2
3620 2
3621 1
3622 1
3623 1
3624 2
3625 2
3626 1
3627 1
3628 1
3629 2
3630 1
3631 1
3632 2
3633 2
3634 2
3635 1
3636 1
3637 1
3638 1
3639 2
3640 1
3641 1
3642 2
3643 2
3644 1
3645 2
3646 1
3647 2
3648 2
3649 1
3650 2
3651 1
3652 1
3653 1
3654 2
3655 2
3656 2
3657 1
3658 1
3659 1
3660 2
3661 1
3662 1
3663 2
3664 1
3665 2
3666 2
3667 1
3668 1
3669 1
3670 2
3671 2
3672 2
3673 2
3674 1
3675 2
3676 1
3677 2
3678 1
3679 1
3680 1
3681 2
3682 1
3683 1
3684 2
3685 1
3686 1
3687 1
3688 1
3689 1
3690 1
3691 1
3692 1
3693 2
3694 1
3695 1
3696 2
3697 2
3698 2
3699 2
3700 2
3701 2
3702 2
3703 2
3704 1
3705 2
3706 2
3707 2
3708 2
3709 2
3710 2
3711 1
3712 1
3713 1
3714 2
3715 1
3716 1
3717 2
3718 2
3719 1
3720 2
3721 1
3722 2
3723 2
3724 1
3725 1
3726 2
3727 2
3728 1
3729 2
3730 1
3731 2
3732 1
3733 1
3734 1
3735 2
3736 1
3737 1
3738 2
3739 1
3740 2
3741 2
3742 2
3743 2
3744 1
3745 1
3746 2
3747 2
3748 1
3749 2
3750 1
3751 2
3752 1
3753 1
3754 2
3755 2
3756 1
3757 1
3758 2
3759 2
3760 2
3761 1
3762 2
3763 2
3764 2
3765 1
3766 1
3767 2
3768 1
3769 1
3770 2
3771 1
3772 1
3773 1
3774 2
3775 2
3776 1
3777 2
3778 1
3779 2
3780 2
3781 2
3782 1
3783 2
3784 1
3785 1
3786 2
3787 2
3788 2
3789 2
3790 2
3791 1
3792 2
3793 2
3794 2
3795 2
3796 2
3797 1
3798 1
3799 2
3800 2
3801 1
3802 2
3803 1
3804 2
3805 2
3806 2
3807 2
3808 2
3809 1
3810 2
3811 1
3812 1
3813 2
3814 2
3815 2
3816 2
3817 2
3818 1
3819 1
3820 1
3821 2
3822 1
3823 2
3824 1
3825 1
3826 2
3827 2
3828 2
3829 2
3830 1
3831 1
3832 2
3833 2
3834 1
3835 2
3836 1
3837 2
3838 1
3839 1
3840 2
3841 2
3842 2
3843 2
3844 2
3845 2
3846 1
3847 1
3848 1
3849 1
3850 2
3851 2
3852 2
3853 1
3854 1
3855 1
3856 2
3857 2
3858 2
3859 1
3860 2
3861 1
3862 2
3863 2
3864 2
3865 2
3866 2
3867 2
3868 2
3869 2
3870 2
3871 2
3872 2
3873 1
3874 2
3875 1
3876 2
3877 1
3878 2
3879 2
3880 2
3881 1
3882 1
3883 2
3884 1
3885 1
3886 2
3887 2
3888 2
3889 2
3890 2
3891 2
3892 2
3893 1
3894 2
3895 2
3896 1
3897 2
3898 1
3899 1
3900 2
3901 2
3902 1
3903 1
3904 2
3905 1
3906 1
3907 2
3908 1
3909 1
3910 1
3911 1
3912 2
3913 2
3914 2
3915 1
3916 1
3917 1
3918 2
3919 2
3920 2
3921 2
3922 2
3923 2
3924 2
3925 2
3926 1
3927 2
3928 2
3929 1
3930 2
3931 1
3932 1
3933 2
3934 1
3935 2
3936 1
3937 2
3938 1
3939 2
3940 2
3941 1
3942 1
3943 2
3944 2
3945 1
3946 2
3947 1
3948 1
3949 1
3950 1
3951 1
3952 1
3953 2
3954 2
3955 2
3956 1
3957 1
3958 2
3959 1
3960 2
3961 2
3962 2
3963 1
3964 2
3965 1
3966 2
3967 2
3968 2
3969 1
3970 1
3971 2
3972 2
3973 2
3974 2
3975 1
3976 2
3977 1
3978 1
3979 1
3980 2
3981 2
3982 2
3983 2
3984 1
3985 1
3986 1
3987 1
3988 2
3989 2
3990 1
3991 1
3992 1
3993 1
3994 1
3995 1
3996 2
3997 1
3998 2
3999 1
4000 2
4001 2
4002 2
4003 2
4004 2
4005 1
4006 2
4007 2
4008 1
4009 2
4010 1
4011 1
4012 1
4013 1
4014 1
4015 1
4016 2
4017 1
4018 2
4019 2
4020 1
4021 1
4022 2
4023 2
4024 1
4025 1
4026 1
4027 2
4028 2
4029 1
4030 2
4031 1
4032 2
4033 1
4034 1
4035 2
4036 2
4037 1
4038 1
4039 2
4040 1
4041 1
4042 2
4043 1
4044 1
4045 2
4046 2
4047 1
4048 1
4049 1
4050 1
4051 2
4052 2
4053 2
4054 2
4055 1
4056 1
4057 1
4058 2
4059 2
4060 1
4061 2
4062 2
4063 2
4064 2
4065 2
4066 2
4067 1
4068 1
4069 1
4070 2
4071 1
4072 1
4073 2
4074 2
4075 2
4076 2
4077 1
4078 2
4079 1
4080 2
4081 1
4082 1
4083 2
4084 1
4085 2
4086 2
4087 1
4088 2
4089 1
4090 2
4091 2
4092 2
4093 2
4094 1
4095 2
4096 2
4097 1
4098 2
4099 1
4100 1
4101 2
4102 1
4103 2
4104 1
4105 2
4106 1
4107 2
4108 2
4109 2
4110 1
4111 2
4112 2
4113 2
4114 2
4115 2
4116 1
4117 1
4118 2
4119 2
4120 1
4121 2
4122 1
4123 2
4124 1
4125 2
4126 2
4127 2
4128 1
4129 2
4130 2
4131 2
4132 1
4133 1
4134 2
4135 2
4136 2
4137 2
4138 1
4139 2
4140 2
4141 2
4142 2
4143 2
4144 1
4145 1
4146 2
4147 1
4148 1
4149 1
4150 2
4151 2
4152 2
4153 2
4154 2
4155 2
4156 2
4157 2
4158 2
4159 1
4160 1
4161 2
4162 2
4163 1
4164 2
4165 1
4166 2
4167 1
4168 2
4169 2
4170 1
4171 1
4172 2
4173 2
4174 1
4175 2
4176 2
4177 1
4178 1
4179 2
4180 2
4181 2
4182 1
4183 1
4184 1
4185 2
4186 1
4187 1
4188 1
4189 2
4190 2
4191 2
4192 2
4193 2
4194 1
4195 2
4196 1
4197 2
4198 2
4199 1
4200 2
4201 1
4202 1
4203 2
4204 2
4205 2
4206 1
4207 2
4208 2
4209 2
4210 2
4211 2
4212 2
4213 2
4214 2
4215 1
4216 2
4217 2
4218 1
4219 1
4220 1
4221 1
4222 2
4223 1
4224 1
4225 2
4226 1
4227 2
4228 1
4229 2
4230 1
4231 2
4232 1
4233 2
4234 2
4235 2
4236 1
4237 2
4238 1
4239 1
4240 1
4241 1
4242 1
4243 2
4244 1
4245 1
4246 2
4247 2
4248 1
4249 1
4250 1
4251 2
4252 2
4253 1
4254 2
4255 2
4256 1
4257 1
4258 2
4259 2
4260 2
4261 2
4262 2
4263 2
4264 1
4265 2
4266 2
4267 1
4268 1
4269 1
4270 2
4271 2
4272 2
4273 1
4274 2
4275 2
4276 2
4277 1
4278 1
4279 1
4280 1
4281 2
4282 2
4283 1
4284 1
4285 2
4286 2
4287 1
4288 2
4289 1
4290 1
4291 1
4292 1
4293 1
4294 1
4295 1
4296 1
4297 1
4298 1
4299 1
4300 1
4301 1
4302 2
4303 1
4304 2
4305 2
4306 1
4307 2
4308 2
4309 2
4310 2
4311 2
4312 1
4313 1
4314 2
4315 2
4316 2
4317 2
4318 2
4319 2
4320 2
4321 1
4322 2
4323 2
4324 2
4325 2
4326 2
4327 1
4328 1
4329 2
4330 1
4331 1
4332 2
4333 2
4334 2
4335 1
4336 1
4337 1
4338 1
4339 2
4340 2
4341 1
4342 1
4343 2
4344 1
4345 2
4346 2
4347 1
4348 2
4349 2
4350 2
4351 1
4352 1
4353 1
4354 1
4355 1
4356 1
4357 2
4358 2
4359 2
4360 1
4361 2
4362 2
4363 2
4364 1
4365 1
4366 2
4367 2
4368 2
4369 1
4370 2
4371 2
4372 2
4373 2
4374 1
4375 2
4376 2
4377 2
4378 1
4379 1
4380 2
4381 2
4382 2
4383 2
4384 2
4385 1
4386 1
4387 1
4388 1
4389 1
4390 1
4391 2
4392 1
4393 2
4394 1
4395 2
4396 1
4397 2
4398 1
4399 2
4400 1
4401 2
4402 2
4403 2
4404 2
4405 1
4406 1
4407 2
4408 2
4409 2
4410 1
4411 1
4412 2
4413 1
4414 1
4415 1
4416 1
4417 1
4418 2
4419 2
4420 2
4421 2
4422 2
4423 2
4424 1
4425 2
4426 2
4427 2
4428 1
4429 2
4430 2
4431 2
4432 2
4433 2
4434 1
4435 2
4436 2
4437 1
4438 2
4439 1
4440 2
4441 1
4442 2
4443 1
4444 1
4445 1
4446 2
4447 2
4448 2
4449 2
4450 2
4451 1
4452 1
4453 2
4454 1
4455 1
4456 1
4457 2
4458 2
4459 2
4460 2
4461 1
4462 2
4463 2
4464 2
4465 2
4466 2
4467 2
4468 2
4469 2
4470 2
4471 2
4472 1
4473 2
4474 2
4475 2
4476 1
4477 2
4478 2
4479 2
4480 1
4481 2
4482 1
4483 1
4484 2
4485 2
4486 2
4487 2
4488 2
4489 1
4490 2
4491 2
4492 2
4493 2
4494 1
4495 1
4496 2
4497 2
4498 2
4499 2
4500 2
4501 2
4502 2
4503 1
4504 1
4505 1
4506 2
4507 1
4508 1
4509 1
4510 2
4511 2
4512 2
4513 2
4514 1
4515 2
4516 2
4517 1
4518 2
4519 2
4520 2
4521 2
4522 2
4523 1
4524 1
4525 2
4526 2
4527 2
4528 1
4529 1
4530 1
4531 2
4532 1
4533 1
4534 2
4535 2
4536 1
4537 2
4538 1
4539 1
4540 2
4541 2
4542 2
4543 2
4544 1
4545 1
4546 1
4547 1
4548 2
4549 1
4550 1
4551 1
4552 2
4553 2
4554 2
4555 1
4556 2
4557 2
4558 1
4559 2
4560 2
4561 2
4562 2
4563 1
4564 1
4565 2
4566 2
4567 2
4568 2
4569 2
4570 2
4571 1
4572 1
4573 2
4574 2
4575 2
4576 1
4577 1
4578 1
4579 1
4580 1
4581 1
4582 2
4583 2
4584 2
4585 1
4586 1
4587 1
4588 2
4589 2
4590 2
4591 1
4592 2
4593 2
4594 2
4595 2
4596 2
4597 2
4598 1
4599 2
4600 2
4601 1
4602 2
4603 2
4604 2
4605 1
4606 1
4607 2
4608 2
4609 2
4610 1
4611 1
4612 2
4613 1
4614 1
4615 1
4616 2
4617 2
4618 1
4619 1
4620 2
4621 2
4622 2
4623 1
4624 1
4625 1
4626 1
4627 2
4628 2
4629 1
4630 2
4631 2
4632 1
4633 2
4634 2
4635 2
4636 1
4637 2
4638 1
4639 1
4640 1
4641 2
4642 2
4643 2
4644 1
4645 1
4646 2
4647 1
4648 1
4649 2
4650 2
4651 1
4652 2
4653 1
4654 1
4655 2
4656 2
4657 2
4658 2
4659 2
4660 2
4661 2
4662 1
4663 1
4664 2
4665 1
4666 2
4667 1
4668 2
4669 2
4670 1
4671 2
4672 1
4673 1
4674 1
4675 2
4676 1
4677 1
4678 1
4679 1
4680 2
4681 2
4682 2
4683 2
4684 1
4685 2
4686 2
4687 2
4688 2
4689 1
4690 2
4691 1
4692 1
4693 2
4694 2
4695 1
4696 2
4697 1
4698 2
4699 1
4700 1
4701 2
4702 2
4703 2
4704 2
4705 2
4706 2
4707 2
4708 2
4709 1
4710 2
4711 1
4712 1
4713 1
4714 1
4715 1
4716 1
4717 2
4718 1
4719 2
4720 2
4721 2
4722 2
4723 2
4724 2
4725 1
4726 1
4727 2
4728 2
4729 1
4730 2
4731 2
4732 1
4733 1
4734 2
4735 1
4736 2
4737 2
4738 2
4739 2
4740 1
4741 2
4742 1
4743 2
4744 1
4745 1
4746 1
4747 2
4748 2
4749 1
4750 2
4751 2
4752 2
4753 1
4754 1
4755 2
4756 1
4757 1
4758 1
4759 2
4760 1
4761 1
4762 2
4763 1
4764 2
4765 1
4766 2
4767 1
4768 1
4769 2
4770 1
4771 1
4772 2
4773 1
4774 1
4775 2
4776 1
4777 2
4778 1
4779 1
4780 2
4781 2
4782 1
4783 1
4784 1
4785 1
4786 1
4787 1
4788 2
4789 2
4790 1
4791 2
4792 1
4793 1
4794 1
4795 1
4796 1
4797 2
4798 2
4799 2
4800 2
4801 1
4802 1
4803 1
4804 1
4805 1
4806 1
4807 2
4808 2
4809 2
4810 2
4811 2
4812 2
4813 2
4814 2
4815 2
4816 1
4817 2
4818 2
4819 2
4820 2
4821 2
4822 1
4823 2
4824 1
4825 2
4826 2
4827 2
4828 1
4829 1
4830 1
4831 1
4832 1
4833 1
4834 2
4835 2
4836 2
4837 2
4838 1
4839 1
4840 1
4841 1
4842 1
4843 2
4844 2
4845 1
4846 2
4847 1
4848 2
4849 2
4850 2
4851 2
4852 2
4853 1
4854 1
4855 1
4856 1
4857 2
4858 2
4859 2
4860 2
4861 1
4862 2
4863 1
4864 2
4865 2
4866 2
4867 2
4868 1
4869 2
4870 1
4871 1
4872 2
4873 2
4874 2
4875 1
4876 2
4877 2
4878 2
4879 2
4880 1
4881 1
4882 1
4883 2
4884 2
4885 1
4886 1
4887 2
4888 1
4889 2
4890 2
4891 1
4892 1
4893 1
4894 2
4895 2
4896 1
4897 2
4898 2
4899 1
4900 1
4901 2
4902 2
4903 2
4904 2
4905 1
4906 2
4907 2
4908 2
4909 2
4910 1
4911 2
4912 1
4913 2
4914 1
4915 1
4916 2
4917 2
4918 2
4919 1
4920 2
4921 1
4922 2
4923 2
4924 1
4925 1
4926 2
4927 1
4928 2
4929 1
4930 1
4931 2
4932 1
4933 1
4934 2
4935 2
4936 2
4937 1
4938 2
4939 1
4940 2
4941 1
4942 2
4943 1
4944 2
4945 1
4946 1
4947 1
4948 2
4949 1
4950 2
4951 2
4952 1
4953 2
4954 1
4955 2
4956 1
4957 1
4958 2
4959 2
4960 2
4961 1
4962 1
4963 1
4964 2
4965 1
4966 2
4967 2
4968 2
4969 1
4970 2
4971 2
4972 2
4973 1
4974 1
4975 2
4976 2
4977 2
4978 2
4979 2
4980 1
4981 2
4982 2
4983 2
4984 2
4985 2
4986 1
4987 1
4988 2
4989 2
4990 2
4991 2
4992 2
4993 1
4994 2
4995 2
4996 2
4997 2
4998 1
4999 2
5000 2
